c nIsolatedPIs 0
c maxPI 16
p cnf 69 160
c gate 17 -8 16 0
-8 -17 0
16 -17 0
8 -16 17 0
c gate 18 8 -16 0
8 -18 0
-16 -18 0
-8 16 18 0
c gate 19 7 -15 0
7 -19 0
-15 -19 0
-7 15 19 0
c gate 20 5 -13 0
5 -20 0
-13 -20 0
-5 13 20 0
c gate 21 -5 13 0
-5 -21 0
13 -21 0
5 -13 21 0
c gate 22 -20 -21 0
-20 -22 0
-21 -22 0
20 21 22 0
c gate 23 6 -14 0
6 -23 0
-14 -23 0
-6 14 23 0
c gate 24 -6 14 0
-6 -24 0
14 -24 0
6 -14 24 0
c gate 25 -23 -24 0
-23 -25 0
-24 -25 0
23 24 25 0
c gate 26 22 25 0
22 -26 0
25 -26 0
-22 -25 26 0
c gate 27 -21 -24 0
-21 -27 0
-24 -27 0
21 24 27 0
c gate 28 -23 -27 0
-23 -28 0
-27 -28 0
23 27 28 0
c gate 29 -26 -28 0
-26 -29 0
-28 -29 0
26 28 29 0
c gate 30 -19 -29 0
-19 -30 0
-29 -30 0
19 29 30 0
c gate 31 -7 15 0
-7 -31 0
15 -31 0
7 -15 31 0
c gate 32 -30 -31 0
-30 -32 0
-31 -32 0
30 31 32 0
c gate 33 -18 -32 0
-18 -33 0
-32 -33 0
18 32 33 0
c gate 34 -17 -33 0
-17 -34 0
-33 -34 0
17 33 34 0
c gate 35 4 -12 0
4 -35 0
-12 -35 0
-4 12 35 0
c gate 36 -17 -18 0
-17 -36 0
-18 -36 0
17 18 36 0
c gate 37 -19 -31 0
-19 -37 0
-31 -37 0
19 31 37 0
c gate 38 36 37 0
36 -38 0
37 -38 0
-36 -37 38 0
c gate 39 26 38 0
26 -39 0
38 -39 0
-26 -38 39 0
c gate 40 3 -11 0
3 -40 0
-11 -40 0
-3 11 40 0
c gate 41 -3 11 0
-3 -41 0
11 -41 0
3 -11 41 0
c gate 42 -40 -41 0
-40 -42 0
-41 -42 0
40 41 42 0
c gate 43 -2 10 0
-2 -43 0
10 -43 0
2 -10 43 0
c gate 44 2 -10 0
2 -44 0
-10 -44 0
-2 10 44 0
c gate 45 -43 -44 0
-43 -45 0
-44 -45 0
43 44 45 0
c gate 46 1 -9 0
1 -46 0
-9 -46 0
-1 9 46 0
c gate 47 45 -46 0
45 -47 0
-46 -47 0
-45 46 47 0
c gate 48 -43 -47 0
-43 -48 0
-47 -48 0
43 47 48 0
c gate 49 42 48 0
42 -49 0
48 -49 0
-42 -48 49 0
c gate 50 -40 -49 0
-40 -50 0
-49 -50 0
40 49 50 0
c gate 51 39 -50 0
39 -51 0
-50 -51 0
-39 50 51 0
c gate 52 35 -51 0
35 -52 0
-51 -52 0
-35 51 52 0
c gate 53 -4 12 0
-4 -53 0
12 -53 0
4 -12 53 0
c gate 54 -50 -53 0
-50 -54 0
-53 -54 0
50 53 54 0
c gate 55 -35 -54 0
-35 -55 0
-54 -55 0
35 54 55 0
c gate 56 -1 9 0
-1 -56 0
9 -56 0
1 -9 56 0
c gate 57 47 -56 0
47 -57 0
-56 -57 0
-47 56 57 0
c gate 58 -35 -53 0
-35 -58 0
-53 -58 0
35 53 58 0
c gate 59 42 58 0
42 -59 0
58 -59 0
-42 -58 59 0
c gate 60 57 59 0
57 -60 0
59 -60 0
-57 -59 60 0
c gate 61 39 60 0
39 -61 0
60 -61 0
-39 -60 61 0
c gate 62 39 -55 0
39 -62 0
-55 -62 0
-39 55 62 0
c gate 63 -34 -62 0
-34 -63 0
-62 -63 0
34 62 63 0
c gate 64 -61 -63 0
-61 -64 0
-63 -64 0
61 63 64 0
c gate 65 -55 -64 0
-55 -65 0
-64 -65 0
55 64 65 0
c gate 66 -52 65 0
-52 -66 0
65 -66 0
52 -65 66 0
c gate 67 52 -65 0
52 -67 0
-65 -67 0
-52 65 67 0
c gate 68 -66 -67 0
-66 -68 0
-67 -68 0
66 67 68 0
c gate 69 -34 -68 0
-34 -69 0
-68 -69 0
34 68 69 0
c PO
69 0
